c 220_4_checker_6cl.cnf
c
c field = 220
c formula set type = 4_checker_6cl
c
p cnf 6 10
430 
432 
434 
436 
-428 
-440 
431 
433 
435 
437 
-429 
-441 
432 
434 
436 
440 
-430 
-442 
433 
435 
437 
441 
-431 
-443 
434 
436 
440 
442 
-432 
-444 
435 
437 
441 
443 
-433 
-445 
436 
440 
442 
444 
-434 
-446 
437 
441 
443 
445 
-435 
-447 
440 
442 
444 
446 
-436 
-448 
441 
443 
445 
447 
-437 
-449 
